(set-logic QF_S)
(declare-fun var0 () String)
(assert (str.in.re var0 (re.++ (re.union (re.* (str.to.re "000")) (re.* (str.to.re "111"))) (re.++ (re.+ (re.union (str.to.re "222") (str.to.re "3"))) (re.++ (re.+ (re.* (str.to.re "444"))) (re.++ (re.* (re.+ (str.to.re "55"))) (re.++ (re.+ (re.+ (str.to.re "66"))) (re.++ (re.union (re.union (str.to.re "7") (str.to.re "88")) (re.union (str.to.re "9") (str.to.re "aa"))) (re.++ (re.+ (re.+ (str.to.re "bb"))) (re.++ (re.+ (re.+ (str.to.re "ccc"))) (re.++ (re.union (re.union (str.to.re "dd") (str.to.re "ee")) (re.union (str.to.re "f") (str.to.re "g"))) (re.++ (re.union (re.union (str.to.re "hhh") (str.to.re "ii")) (re.union (str.to.re "jj") (str.to.re "kkk"))) (re.++ (re.+ (re.+ (str.to.re "lll"))) (re.++ (re.+ (re.* (str.to.re "m"))) (re.++ (re.* (re.* (str.to.re "nn"))) (re.++ (re.* (re.+ (str.to.re "o"))) (re.++ (re.+ (re.+ (str.to.re "ppp"))) (re.++ (re.* (re.union (str.to.re "q") (str.to.re "rr"))) (re.++ (re.+ (re.+ (str.to.re "sss"))) (re.++ (re.union (re.* (str.to.re "t")) (re.* (str.to.re "u"))) (re.++ (re.union (re.* (str.to.re "v")) (re.* (str.to.re "www"))) (re.++ (re.+ (re.+ (str.to.re "xx"))) (re.++ (re.+ (re.union (str.to.re "yy") (str.to.re "z"))) (re.++ (re.+ (re.+ (str.to.re "A"))) (re.++ (re.* (re.* (str.to.re "BBB"))) (re.++ (re.union (re.* (str.to.re "CCC")) (re.* (str.to.re "D"))) (re.++ (re.* (re.* (str.to.re "EEE"))) (re.++ (re.* (re.* (str.to.re "FF"))) (re.++ (re.union (re.* (str.to.re "GG")) (re.* (str.to.re "HH"))) (re.++ (re.union (re.+ (str.to.re "III")) (re.+ (str.to.re "J"))) (re.++ (re.* (re.+ (str.to.re "KKK"))) (re.++ (re.* (re.+ (str.to.re "LL"))) (re.++ (re.* (re.union (str.to.re "MM") (str.to.re "N"))) (re.++ (re.* (re.* (str.to.re "OO"))) (re.++ (re.* (re.+ (str.to.re "P"))) (re.++ (re.+ (re.union (str.to.re "Q") (str.to.re "RR"))) (re.++ (re.* (re.* (str.to.re "S"))) (re.++ (re.+ (re.* (str.to.re "TTT"))) (re.++ (re.* (re.+ (str.to.re "UUU"))) (re.++ (re.+ (re.union (str.to.re "V") (str.to.re "W"))) (re.++ (re.+ (re.+ (str.to.re "XXX"))) (re.++ (re.+ (re.* (str.to.re "YY"))) (re.++ (re.* (re.union (str.to.re "Z") (str.to.re "!!!"))) (re.++ (re.* (re.+ (str.to.re """"))) (re.++ (re.union (re.+ (str.to.re "###")) (re.+ (str.to.re "$$$"))) (re.++ (re.union (re.+ (str.to.re "%%")) (re.+ (str.to.re "&&"))) (re.++ (re.union (re.union (str.to.re "'") (str.to.re "(")) (re.union (str.to.re ")") (str.to.re "**"))) (re.++ (re.+ (re.* (str.to.re "++"))) (re.++ (re.+ (re.+ (str.to.re ",,,"))) (re.++ (re.union (re.* (str.to.re "-")) (re.* (str.to.re "."))) (re.* (re.* (str.to.re "///")))))))))))))))))))))))))))))))))))))))))))))))))))))
(check-sat)